NAME : rbg132.2.tw.18524.tour
COMMENT : Length = 18524
COMMENT : Found by LKH [Keld Helsgaun] Tue Nov  7 19:33:21 2017
TYPE : TOUR
DIMENSION : 131
TOUR_SECTION
1
3
2
5
4
14
13
8
7
10
9
12
11
6
16
15
20
18
17
21
19
22
27
29
28
26
25
24
30
23
31
36
42
35
33
32
38
44
39
45
41
34
40
37
43
48
49
46
51
52
53
47
50
58
59
54
55
63
56
65
57
61
60
62
69
67
66
73
71
64
74
70
68
72
75
77
76
82
87
80
78
81
79
85
84
86
83
96
89
88
90
91
93
94
92
97
99
98
95
105
100
104
102
106
108
101
103
109
107
116
110
112
114
117
113
111
119
115
122
125
118
121
123
124
120
127
129
128
126
130
131
-1
EOF
